This is Ipopt version 3.14.16, running with linear solver MUMPS 5.7.3.

Number of nonzeros in equality constraint Jacobian...:        0
Number of nonzeros in inequality constraint Jacobian.:      578
Number of nonzeros in Lagrangian Hessian.............:        0

Total number of variables............................:       17
                     variables with only lower bounds:        0
                variables with lower and upper bounds:       17
                     variables with only upper bounds:        0
Total number of equality constraints.................:        0
Total number of inequality constraints...............:       34
        inequality constraints with only lower bounds:        0
   inequality constraints with lower and upper bounds:        0
        inequality constraints with only upper bounds:       34

iter    objective    inf_pr   inf_du lg(mu)  ||d||  lg(rg) alpha_du alpha_pr  ls
   0  2.8764700e-02 8.50e+01 1.01e+00   0.0 0.00e+00    -  0.00e+00 0.00e+00   0
   1  2.9959048e-02 8.50e+01 1.50e+01  -5.9 8.81e+01    -  2.13e-03 1.32e-04h  1
   2  2.6996997e-01 1.31e+01 1.83e+04   1.2 8.08e+02    -  1.03e-03 5.86e-03f  1
   3  2.7259911e-01 1.21e+01 1.68e+04   0.0 1.07e+00    -  5.53e-01 6.69e-02f  1
   4  9.4371120e-01 8.38e+01 2.90e+01   0.0 7.88e+01    -  2.98e-01 8.67e-01f  1
   5  8.2243601e-01 6.58e-01 5.35e+03   0.0 1.03e+02    -  6.90e-02 3.16e-01f  1
   6  8.9437308e-01 6.67e-01 4.05e+03   0.0 3.05e+01    -  8.98e-01 8.62e-01h  1
   7  3.4471566e-01 0.00e+00 2.19e+02   0.0 4.30e+00    -  9.86e-01 5.90e-01f  1
   8  2.4740229e-01 1.03e-01 1.22e+01   0.0 1.13e+02    -  8.42e-01 1.00e+00f  1
   9  2.2107983e-01 1.56e-02 1.36e+00  -0.9 1.96e+01    -  9.91e-01 1.00e+00h  1
iter    objective    inf_pr   inf_du lg(mu)  ||d||  lg(rg) alpha_du alpha_pr  ls
  10  9.5306830e-02 1.69e-03 4.55e-01  -1.7 5.67e+01    -  9.92e-01 1.00e+00h  1
  11  2.1745570e-02 3.88e-04 4.38e-01  -2.2 1.38e+01    -  1.00e+00 9.99e-01h  1
  12 -3.8939860e-02 0.00e+00 6.61e-01  -2.4 9.36e-01    -  9.99e-01 1.00e+00h  1
  13 -5.2688384e-02 2.33e-04 5.99e+00  -2.1 1.45e+01    -  1.00e+00 4.35e-01h  2
  14 -7.5998030e-02 0.00e+00 1.09e+00  -2.4 1.17e+01    -  1.00e+00 1.00e+00h  1
  15 -8.1999674e-02 9.66e-04 5.27e+00  -1.1 9.19e+02    -  1.00e+00 3.74e-02f  2
  16 -7.4982069e-02 0.00e+00 5.34e-01  -1.9 3.09e+00    -  1.00e+00 1.00e+00h  1
  17 -8.1437629e-02 0.00e+00 1.56e+00  -2.0 4.14e+00    -  1.00e+00 1.00e+00H  1
  18 -1.2916612e-01 0.00e+00 2.87e+00  -2.5 4.53e+00    -  1.00e+00 1.00e+00h  1
  19 -1.0355318e-01 0.00e+00 7.11e+00  -1.9 1.70e+02    -  1.00e+00 2.33e-01h  3
iter    objective    inf_pr   inf_du lg(mu)  ||d||  lg(rg) alpha_du alpha_pr  ls
  20 -9.2889717e-02 0.00e+00 9.41e-01  -2.0 1.73e+01    -  9.26e-01 1.00e+00h  1
  21 -1.4845112e-01 0.00e+00 2.73e+00  -2.5 3.04e+01    -  1.00e+00 1.00e+00h  1
  22 -5.1756590e-02 0.00e+00 1.22e+01  -1.8 7.73e+01    -  7.08e-01 3.37e-01h  2
  23 -9.3511841e-02 0.00e+00 3.92e-01  -2.0 6.42e+01    -  6.76e-01 1.00e+00h  1
  24 -1.0230474e-01 0.00e+00 9.51e-01  -2.0 1.16e+01    -  1.00e+00 9.24e-01h  1
  25 -6.3614623e-02 0.00e+00 8.22e-01  -1.8 5.58e+01    -  1.00e+00 1.00e+00f  1
  26 -9.8516511e-02 0.00e+00 1.52e+00  -1.9 3.11e+01    -  1.00e+00 4.92e-01h  1
  27 -1.6276634e-01 0.00e+00 1.63e+00  -2.1 2.29e+00    -  1.00e+00 9.97e-01h  1
  28 -1.6862258e-01 0.00e+00 1.16e+00  -2.8 4.75e+01    -  1.00e+00 1.00e+00H  1
  29 -1.9421226e-01 0.00e+00 2.54e+00  -2.9 3.27e+00    -  1.00e+00 5.00e-01h  2
iter    objective    inf_pr   inf_du lg(mu)  ||d||  lg(rg) alpha_du alpha_pr  ls
  30 -2.0437758e-01 0.00e+00 1.81e+00  -2.6 1.06e+01    -  1.00e+00 1.00e+00h  1
  31 -1.6562647e-01 3.90e+00 5.79e+00  -3.2 9.61e-01    -  1.00e+00 9.48e-01H  1
  32 -2.3424816e-01 0.00e+00 2.90e+00  -3.3 8.27e-01    -  7.44e-01 7.35e-01h  1
  33 -2.4023973e-01 0.00e+00 5.10e-01  -3.1 5.53e-01    -  1.00e+00 1.00e+00h  1
  34 -2.3505551e-01 0.00e+00 1.94e+00  -2.7 1.29e+00    -  1.00e+00 5.00e-01h  2
  35 -2.5311178e-01 0.00e+00 5.45e+00  -2.8 2.36e+00    -  5.46e-01 8.77e-02h  1
  36 -2.5833713e-01 0.00e+00 2.79e+00  -4.3 1.47e+00    -  3.02e-01 2.04e-01h  3
  37 -2.6988052e-01 0.00e+00 2.84e+00  -3.9 8.08e-01    -  6.47e-01 3.71e-01h  1
  38 -2.7784032e-01 0.00e+00 2.99e+00  -4.7 7.29e-01    -  1.31e-01 1.38e-01h  2
  39 -1.0852922e-01 0.00e+00 2.05e+01  -1.9 1.20e+01    -  6.05e-01 3.40e-01H  1
iter    objective    inf_pr   inf_du lg(mu)  ||d||  lg(rg) alpha_du alpha_pr  ls
  40 -2.7461822e-01 0.00e+00 8.21e+00  -2.2 1.26e+00    -  4.05e-01 9.53e-01h  1
  41 -2.9619659e-01 1.31e+02 5.09e+01  -1.5 1.90e+01    -  8.85e-01 1.40e-01F  1
  42 -3.1672126e-01 0.00e+00 1.32e+01  -2.0 9.09e+00    -  9.21e-01 1.00e+00h  1
  43 -6.6545392e+00 0.00e+00 4.76e+02  -1.4 3.86e+01    -  1.22e-01 1.00e+00h  1
  44 -1.6485858e+01 4.00e+00 3.19e+02   0.2 2.52e+03    -  9.29e-03 2.00e-03f  1
  45 -3.3513516e+01 2.24e+00 1.19e+03  -0.7 4.25e+02    -  2.31e-02 1.16e-01f  1
  46 -7.1577827e+01 2.41e+03 4.37e+03   0.2 1.27e+03    -  3.90e-03 9.43e-03f  1
  47 -1.2674330e+02 0.00e+00 8.26e+03  -0.2 1.52e+03    -  1.27e-01 1.04e-01f  1
  48 -2.3844924e+02 1.26e+00 1.88e+04   0.1 1.68e+03    -  1.00e+00 1.55e-01f  1
  49 -2.2702791e+02 9.18e-01 8.68e+03   1.0 1.88e+03    -  1.00e+00 1.62e-01F  1
iter    objective    inf_pr   inf_du lg(mu)  ||d||  lg(rg) alpha_du alpha_pr  ls
  50 -3.8320300e+02 0.00e+00 2.72e+04   0.9 2.89e+01    -  1.00e+00 6.94e-01f  1
  51 -3.1625507e+02 2.06e+00 1.32e+04   1.6 2.03e+03    -  1.00e+00 5.29e-02f  2
  52 -3.7503223e+02 6.74e-01 9.92e+03   1.5 5.20e+01    -  9.66e-01 1.00e+00f  1
  53 -4.8047902e+02 3.69e-01 1.62e+04   1.5 2.10e+01    -  1.00e+00 1.00e+00f  1
  54 -8.4157296e+02 3.25e+02 2.09e+05   1.3 2.29e+02    -  1.00e+00 7.44e-01f  1
  55 -4.6896171e+02 0.00e+00 5.89e+04   2.6 1.78e+03    -  9.48e-01 3.16e-01f  1
  56 -3.0588549e+02 1.56e+02 3.25e+04   2.4 1.50e+03    -  6.95e-01 4.25e-01f  1
  57 -2.2375958e+02 0.00e+00 1.32e+04   1.7 1.41e+02    -  4.77e-01 1.00e+00F  1
  58 -2.7052631e+02 0.00e+00 6.73e+03   1.7 2.39e+02    -  1.00e+00 1.00e+00f  1
  59 -3.0375563e+02 0.00e+00 5.47e+03   1.7 1.74e+02    -  1.00e+00 1.00e+00f  1
iter    objective    inf_pr   inf_du lg(mu)  ||d||  lg(rg) alpha_du alpha_pr  ls
  60 -6.1523086e+02 0.00e+00 7.31e+04   1.4 7.37e+02    -  9.99e-01 8.16e-01f  1
  61 -6.7697967e+01 3.90e+03 1.10e+05   2.3 3.42e+03    -  1.00e+00 4.10e-01f  1
  62 -9.3686396e+01 6.30e-02 8.74e+03   2.2 1.43e+02    -  8.22e-01 1.00e+00f  1
  63 -1.9394656e+02 0.00e+00 1.42e+04   1.5 3.79e+02    -  9.11e-01 1.00e+00f  1
  64 -5.4062681e+02 1.42e+00 2.51e+04   1.5 4.83e+02    -  1.00e+00 1.85e-01f  1
  65 -1.3937499e+03 2.20e+03 2.11e+05   1.5 4.14e+03    -  4.50e-01 2.59e-01f  1
  66  3.5129345e-01 0.00e+00 1.12e+04   3.1 8.81e+03    -  6.45e-03 1.88e-02h  1
  67  1.3893706e-01 9.19e-03 8.07e+02   1.5 8.85e+01    -  1.00e+00 9.70e-01f  1
  68 -2.9260770e-01 0.00e+00 3.77e+03   0.8 2.74e+01    -  3.70e-01 1.00e+00f  1
  69 -5.4906104e+00 6.18e-03 7.68e+02   1.1 1.66e+02    -  9.97e-01 1.00e+00f  1
iter    objective    inf_pr   inf_du lg(mu)  ||d||  lg(rg) alpha_du alpha_pr  ls
  70 -3.9078902e+01 0.00e+00 1.56e+03   1.0 1.33e+04    -  2.17e-01 2.54e-01f  1
  71 -5.4718617e+01 0.00e+00 1.13e+03   1.0 5.71e+03    -  1.89e-01 1.00e+00f  1
  72 -2.2172959e+02 1.08e+04 7.90e+03   1.0 1.88e+04    -  7.12e-01 1.00e+00f  1
  73 -9.9011904e+01 0.00e+00 2.38e+03   1.0 8.04e+03    -  1.00e+00 1.00e+00h  1
  74 -1.4408109e+02 0.00e+00 2.94e+03   1.0 2.18e+03    -  1.00e+00 1.00e+00f  1
  75 -2.9700413e+02 0.00e+00 9.17e+03   1.0 1.42e+04    -  1.00e+00 1.00e+00f  1
  76 -1.3618343e+03 2.73e+04 3.56e+05   1.0 6.88e+04    -  8.42e-01 3.55e-01f  2
  77 -3.2875852e+03 0.00e+00 2.03e+06   1.0 4.53e+08    -  1.35e-04 9.19e-06f  7
  78 -1.7130260e+00 0.00e+00 6.13e+03   1.9 2.01e+06    -  1.00e+00 1.00e+00H  1
  79 -6.0607169e+01 0.00e+00 1.17e+03   1.8 3.40e+03    -  7.56e-01 1.00e+00f  1
iter    objective    inf_pr   inf_du lg(mu)  ||d||  lg(rg) alpha_du alpha_pr  ls
  80 -1.4139761e+02 1.86e+03 3.62e+03   1.8 1.40e+04    -  3.62e-01 1.30e-01f  2
  81 -2.3576477e+02 0.00e+00 1.92e+04   1.8 1.78e+04    -  1.00e+00 5.00e-01f  2
  82 -4.2227340e+02 0.00e+00 4.21e+04   1.8 2.19e+04    -  6.45e-01 5.36e-01H  1
  83 -9.4264936e+01 4.77e+03 7.53e+03   1.8 3.16e+05    -  1.56e-01 7.31e-02h  1
  84 -5.1969542e+01 0.00e+00 5.35e+03   1.8 1.13e+05    -  1.71e-01 1.79e-01f  1
  85 -1.0551598e+02 0.00e+00 1.55e+03   1.8 2.72e+05    -  2.34e-01 5.30e-02f  5
  86 -4.1928590e+02 1.31e+00 6.24e+04   1.8 2.80e+05    -  1.53e-01 2.29e-01f  3
  87 -4.3902837e+02 1.15e+00 5.79e+04   1.8 6.95e+05    -  2.13e-01 4.87e-02f  3
  88 -7.2362749e+02 0.00e+00 1.00e+05   1.8 4.79e+05    -  4.36e-01 3.35e-01F  1
  89 -9.4882886e+03 0.00e+00 1.31e+07   1.8 2.28e+05    -  4.77e-01 2.50e-01f  3
iter    objective    inf_pr   inf_du lg(mu)  ||d||  lg(rg) alpha_du alpha_pr  ls
  90 -2.0589685e+04 6.38e+05 4.30e+07   3.1 1.80e+08    -  7.05e-04 4.80e-04f  3
  91 -2.2390681e+04 8.47e+05 5.48e+07   2.3 1.00e+07    -  4.57e-01 2.60e-02f  1
  92 -1.0653273e+03 0.00e+00 3.36e+05   3.1 3.93e+05    -  4.09e-02 6.29e-02h  1
  93 -2.2013198e+03 0.00e+00 7.56e+05   2.1 7.48e+04    -  2.56e-01 1.00e+00f  1
  94 -1.1994638e+04 1.06e-01 1.58e+07   1.9 8.96e+05    -  3.47e-02 6.17e-02f  1
  95 -1.4535879e+04 1.13e+04 1.63e+07   3.0 5.78e+05    -  1.00e+00 1.69e-01F  1
  96 -6.5988366e+03 0.00e+00 4.29e+06   3.1 5.54e+05    -  1.00e+00 6.35e-02h  1
  97 -1.3124108e+04 0.00e+00 1.96e+07   3.1 1.48e+05    -  5.87e-01 1.00e+00f  1
  98 -1.7391080e+04 1.03e+05 5.95e+06   3.1 4.74e+05    -  1.10e-01 6.63e-02f  1
  99 -2.6540066e+04 0.00e+00 4.78e+07   3.1 3.81e+04    -  6.69e-01 1.00e+00f  1
iter    objective    inf_pr   inf_du lg(mu)  ||d||  lg(rg) alpha_du alpha_pr  ls
 100 -9.7943639e+02 0.00e+00 7.25e+05   2.6 5.33e+03    -  1.52e-01 4.80e-01h  1
 101 -6.2518789e+03 2.24e+05 6.15e+06   3.0 1.56e+04    -  9.39e-01 8.12e-01f  1
 102 -8.0917735e+03 0.00e+00 7.42e+06   3.0 1.41e+03    -  1.48e-01 6.11e-01f  1
 103 -1.5362607e+04 0.00e+00 1.64e+07   3.0 1.78e+03    -  7.55e-01 7.40e-01f  1
 104 -3.2504645e+04 4.40e+04 3.06e+07   3.0 5.33e+04    -  5.65e-01 2.12e-01f  1
 105 -6.8538367e+04 0.00e+00 2.97e+08   3.1 9.66e+04    -  7.02e-01 4.10e-01f  1
 106 -8.3150801e+04 0.00e+00 3.80e+08   3.1 5.94e+04    -  9.20e-02 2.55e-02f  2
 107 -1.0321517e+05 0.00e+00 3.98e+08   2.5 1.45e+06    -  1.34e-01 3.24e-02f  3
 108 -1.3548134e+05 0.00e+00 5.87e+08   2.8 8.23e+07    -  1.34e-02 3.43e-03f  5
 109 -1.6577586e+05 0.00e+00 8.58e+08   3.1 2.29e+09    -  4.05e-04 2.17e-04f  6
iter    objective    inf_pr   inf_du lg(mu)  ||d||  lg(rg) alpha_du alpha_pr  ls
 110 -1.9216203e+05 0.00e+00 1.16e+09   3.1 7.65e+09    -  6.11e-04 8.21e-05f  5
 111  1.5976131e-01 4.63e-02 8.84e+05   3.1 2.06e+10    -  1.14e-06 7.01e-05h  1
 112  6.7831882e-01 4.34e-02 7.14e+04   2.9 1.45e+04    -  1.00e+00 9.90e-01h  1
 113  8.5563860e-01 3.16e+01 1.99e+04   2.2 1.39e+02    -  9.87e-01 9.89e-01h  1
 114  3.4549956e+01 2.85e+01 3.07e+04   1.5 2.57e+01    -  9.24e-01 9.30e-01h  1
 115 -1.1110509e+01 0.00e+00 1.79e+05   1.5 3.32e+02    -  3.50e-01 1.00e+00f  1
 116  5.8291196e+00 0.00e+00 5.16e+03   1.5 6.25e+03    -  7.98e-01 1.00e+00f  1
 117 -4.7790285e+00 1.07e+00 3.04e+03   1.5 4.08e+03    -  6.28e-01 1.00e+00f  1
 118  7.7533970e+00 0.00e+00 2.82e+03   1.5 7.74e+02    -  1.00e+00 1.00e+00h  1
 119 -4.9638046e+00 0.00e+00 4.35e+02   1.5 1.79e+03    -  6.34e-01 1.00e+00f  1
iter    objective    inf_pr   inf_du lg(mu)  ||d||  lg(rg) alpha_du alpha_pr  ls
 120 -6.1418070e+01 0.00e+00 4.96e+03   1.5 7.47e+03    -  5.70e-01 1.00e+00f  1
 121 -4.3105138e+01 0.00e+00 5.30e+02   1.5 1.32e+05    -  5.04e-01 3.47e-01f  2
 122 -1.0108840e+01 5.26e+00 7.64e+02   1.5 5.09e+03    -  4.56e-01 7.95e-01H  1
 123 -5.5501774e+00 0.00e+00 1.43e+03   1.5 2.17e+04    -  9.00e-01 4.57e-01f  1
 124  5.6299051e+00 6.84e-01 1.71e+02   1.5 1.10e+04    -  4.59e-01 1.00e+00f  1
 125  2.3905043e+00 2.63e+02 1.19e+02   1.5 2.29e+04    -  1.00e+00 7.95e-01h  1
 126  4.1880681e+00 1.96e+02 4.67e+01   1.5 5.18e+03    -  1.00e+00 8.97e-01h  1
 127  6.1855709e+00 1.21e+02 2.27e+02   1.5 3.50e+02    -  1.00e+00 4.61e-01h  1
 128  2.9898444e+00 4.85e+01 5.84e+02   0.8 2.30e+02    -  1.00e+00 7.89e-01h  1
 129 -7.2997589e-01 1.89e-03 6.06e+01   0.8 4.00e+01    -  7.66e-01 9.47e-01H  1
iter    objective    inf_pr   inf_du lg(mu)  ||d||  lg(rg) alpha_du alpha_pr  ls
 130 -9.1426693e+00 1.28e+02 3.96e+02  -0.9 1.01e+02    -  5.92e-01 1.00e+00F  1
 131  6.6813502e-01 0.00e+00 2.67e+02   0.3 5.94e+02    -  2.84e-02 4.58e-02h  1
 132  2.3490280e+00 1.40e+01 1.22e+02   0.3 7.19e+01    -  1.00e+00 3.84e-01h  1
 133  1.4330467e+00 6.17e+00 6.49e+01   0.3 2.76e+01    -  8.07e-01 1.00e+00f  1
 134 -1.8480377e+00 0.00e+00 1.26e+02   0.3 1.91e+01    -  1.00e+00 1.00e+00h  1
 135  3.7977907e+00 0.00e+00 1.15e+02   0.7 1.97e+02    -  1.00e+00 1.00e+00f  1
 136  4.3651840e-01 0.00e+00 4.53e+01   0.6 4.24e+02    -  1.00e+00 1.00e+00H  1
 137  1.3915976e+00 8.68e+01 1.30e+03   0.6 6.42e+02    -  2.52e-01 1.00e+00f  1
 138 -3.7904306e+00 1.09e+02 5.23e+02   0.6 8.78e+02    -  1.00e+00 8.80e-01h  1
 139 -1.3905952e+01 0.00e+00 4.75e+02   0.6 7.17e+02    -  5.30e-02 5.60e-01f  1
iter    objective    inf_pr   inf_du lg(mu)  ||d||  lg(rg) alpha_du alpha_pr  ls
 140 -2.0441021e+01 1.66e+02 3.54e+03   0.6 1.45e+03    -  1.64e-01 1.00e+00f  1
 141  6.1042164e-01 9.96e+01 2.61e+03   0.6 3.90e+03    -  2.52e-01 2.65e-01h  1
 142 -7.3514638e-01 1.14e+02 4.49e+02   0.6 9.50e+02    -  5.42e-01 8.58e-01h  1
 143 -1.9302518e+01 1.81e-02 3.51e+02   0.6 3.92e+02    -  6.56e-01 2.41e-01f  2
 144 -2.4769626e+01 1.65e-02 1.02e+03   1.2 2.38e+02    -  6.40e-01 5.65e-03f  5
 145 -7.0243958e+01 2.97e+02 2.92e+03   0.9 2.44e+02    -  1.00e+00 3.41e-01f  2
 146 -7.9845555e+01 1.26e-03 1.21e+03   0.9 8.36e+01    -  1.00e+00 7.92e-01h  1
 147 -1.2670705e+02 0.00e+00 2.13e+03   0.9 2.50e+02    -  7.76e-01 1.00e+00F  1
 148 -2.1171270e+02 6.16e+00 4.41e+03   0.9 5.48e+03    -  5.44e-01 2.18e-01f  1
 149 -3.4273895e+02 0.00e+00 1.32e+04   0.9 3.69e+03    -  6.26e-01 1.00e+00f  1
iter    objective    inf_pr   inf_du lg(mu)  ||d||  lg(rg) alpha_du alpha_pr  ls
 150 -1.5014306e+03 6.06e-03 3.53e+05   0.9 1.12e+05    -  9.12e-02 1.26e-01f  2
 151 -3.3433587e+03 4.93e+01 5.07e+06   2.2 7.42e+05    -  1.00e+00 1.39e-01f  3
 152 -2.7592393e+03 6.41e-03 1.12e+06   2.1 1.15e+05    -  2.65e-01 2.56e-02h  1
 153 -5.6203679e+03 0.00e+00 3.37e+06   2.1 9.02e+04    -  1.00e+00 3.33e-01f  1
 154 -1.1346236e+04 1.29e+05 1.93e+07   2.1 6.25e+03    -  8.83e-01 1.00e+00f  1
 155 -1.4487717e+04 0.00e+00 1.98e+07   2.1 1.08e+05    -  1.62e-01 1.14e-01F  1
 156 -1.4730352e+04 0.00e+00 2.91e+07   2.1 2.61e+07    -  9.15e-03 1.47e-02h  4
 157 -2.0494482e+04 1.31e+02 9.36e+07   2.1 4.13e+06    -  3.34e-02 1.31e-01f  1
 158 -2.1219564e+04 2.97e+02 5.90e+07   2.1 1.28e+06    -  1.00e+00 1.86e-01f  1
 159 -1.6187011e+05 3.72e+02 2.52e+10   2.1 1.21e+05    -  5.91e-01 5.00e-01f  2
iter    objective    inf_pr   inf_du lg(mu)  ||d||  lg(rg) alpha_du alpha_pr  ls
 160 -6.3248941e+02 1.25e-01 8.87e+06   3.1 1.28e+08    -  1.31e-03 1.41e-03h  1
 161 -3.9247365e+02 5.88e-02 2.56e+06   2.0 3.94e+03    -  7.39e-01 9.56e-01h  1
 162 -4.0858192e+02 6.86e-02 2.05e+06   2.0 1.20e+05    -  9.61e-01 9.34e-02h  1
 163 -3.6100199e+01 5.36e-03 1.30e+06   2.0 6.10e+03    -  1.00e+00 1.00e+00f  1
 164 -5.4891468e+01 2.94e-03 4.97e+06   2.0 4.50e+03    -  1.00e+00 8.06e-01H  1
 165 -6.2107592e+02 0.00e+00 1.22e+07   2.0 3.48e+03    -  6.85e-01 1.00e+00f  1
 166 -4.3434871e+02 6.17e+03 1.37e+07   2.0 4.00e+05    -  4.27e-01 2.20e-02h  2
 167 -8.8388414e+02 0.00e+00 5.88e+06   2.0 1.10e+04    -  8.37e-03 5.18e-03f  4
 168 -5.3070034e+03 8.04e+03 8.68e+07   2.0 1.73e+04    -  2.21e-01 1.15e-02f  1
 169 -4.8498113e+03 5.94e+01 3.44e+07   2.0 6.26e+03    -  1.00e+00 7.30e-02h  1
iter    objective    inf_pr   inf_du lg(mu)  ||d||  lg(rg) alpha_du alpha_pr  ls
 170 -6.8178344e+03 2.08e+04 5.46e+07   2.0 6.16e+04    -  9.52e-01 1.41e-01f  1
 171 -2.7799321e+04 3.26e+03 1.37e+09   2.0 5.59e+02    -  1.06e-01 5.55e-01F  1
 172 -4.2209689e+05 7.53e+01 6.34e+12   3.1 2.17e+04    -  3.24e-02 9.12e-02f  1
 173 -2.6472300e+04 0.00e+00 1.44e+09   3.1 1.07e+04    -  8.89e-02 1.27e-02h  2
 174 -4.4632803e+04 0.00e+00 6.40e+09   3.1 1.22e+05    -  6.02e-01 1.88e-02f  1
 175 -4.6648238e+04 1.14e+03 1.30e+10   3.1 9.61e+02    -  1.83e-01 1.93e-01f  3
 176 -8.7890218e+04 0.00e+00 4.69e+10   2.1 3.91e+03    -  1.97e-01 5.35e-02f  1
 177 -1.7832156e+05 0.00e+00 3.56e+11   3.1 1.37e+04    -  8.81e-02 8.88e-03f  1
 178 -1.9185840e+05 9.62e+00 4.52e+11   2.7 3.22e+03    -  3.92e-01 2.64e-03f  1
 179 -4.4339123e+05 7.00e+01 6.08e+12   3.1 4.56e+03    -  2.55e-02 5.95e-03f  8
iter    objective    inf_pr   inf_du lg(mu)  ||d||  lg(rg) alpha_du alpha_pr  ls
 180 -2.2813755e+05 2.66e+01 9.66e+11  -3.2 4.70e+06    -  1.18e-04 3.19e-06h 10
 181 -2.7136952e+05 1.22e+02 1.27e+12   3.1 2.82e+04    -  2.89e-01 6.51e-04f  9
 182 -1.2873039e+05 0.00e+00 1.50e+11   2.8 3.50e+03    -  1.84e-01 7.81e-03h  8
 183 -1.4028685e+05 2.41e+02 1.94e+11   2.8 3.23e+03    -  1.00e+00 7.81e-03f  8
 184 -1.3995428e+05 2.42e+02 1.91e+11   2.8 2.01e+02    -  4.47e-01 7.81e-03h  8
 185 -1.4214617e+05 2.36e+02 1.87e+11   2.8 2.66e+02    -  8.13e-03 6.25e-02f  5
 186 -2.6640276e+05 1.24e+02 1.20e+12   2.8 2.35e+05    -  7.90e-05 1.76e-03f  5
 187 -2.0141588e+05 3.68e+01 4.71e+11   2.8 1.06e+06    -  1.10e-02 7.21e-05h  4
 188 -1.5934987e+05 9.74e+01 2.48e+11   2.8 4.24e+04    -  2.69e-02 1.12e-02h  1
 189 -1.7611888e+05 9.55e+01 3.36e+11   2.8 2.72e+05    -  1.80e-05 1.70e-05f  7
iter    objective    inf_pr   inf_du lg(mu)  ||d||  lg(rg) alpha_du alpha_pr  ls
 190 -2.1144397e+05 9.26e+01 5.85e+11   2.8 5.39e+06    -  2.07e-06 7.34e-06f  7
 191 -3.6291550e+04 0.00e+00 4.07e+09   2.8 4.70e+04    -  4.70e-03 2.38e-03h  2
 192 -1.4886377e+05 7.48e+01 2.01e+11   2.8 1.29e+05    -  7.48e-01 1.24e-03f  1
 193 -1.6213601e+05 7.63e+01 2.58e+11   2.8 3.21e+02    -  3.38e-01 6.06e-03f  1
 194 -3.6104072e+05 8.31e+01 2.81e+12   2.8 2.86e+03    -  6.18e-02 3.93e-03f  7
 195 -7.5819220e+05 8.46e+01 2.57e+13   2.8 8.99e+06    -  1.96e-05 1.08e-06f 10
 196 -2.1740992e+06 8.49e+01 6.03e+14   3.1 1.24e+08    -  1.59e-06 4.19e-08f 11
 197 -2.4918526e+06 8.50e+01 9.06e+14   2.8 3.73e+08    -  8.44e-05 7.11e-09f 12
 198 -2.4920591e+06 8.50e+01 9.06e+14   3.0 1.06e+09    -  7.41e-07 2.05e-11f 23
 199 -5.3661419e+04 0.00e+00 2.97e+12  -3.0 3.36e+03    -  1.56e-04 3.11e-03h  9
iter    objective    inf_pr   inf_du lg(mu)  ||d||  lg(rg) alpha_du alpha_pr  ls
 200 -5.2008313e+04 0.00e+00 2.81e+12   2.9 1.96e+02    -  9.76e-01 6.25e-02h  5
 201 -9.8947404e+04 5.42e+01 2.55e+12   2.9 1.87e+02    -  1.00e+00 1.25e-01f  4
 202 -1.1656361e+05 1.11e+02 2.55e+12   2.8 5.71e+02    -  2.23e-01 4.66e-02f  3
 203 -9.6923519e+04 3.85e+01 2.98e+12   2.8 7.70e+02    -  1.88e-01 4.49e-02h  4
 204 -7.7022025e+04 8.07e+00 3.06e+12   3.1 1.34e+05    -  2.27e-03 1.81e-05h 10
 205 -9.9065096e+04 1.60e+02 4.47e+12   3.1 2.34e+04    -  4.05e-02 3.91e-03f  9
 206 -9.9008942e+04 1.70e+02 5.00e+12   2.7 4.24e+04    -  9.90e-03 7.56e-04f 11
 207 -9.9394425e+04 1.80e+02 5.58e+12   2.7 5.14e+04    -  3.40e-02 6.50e-04f 11
 208 -9.8602368e+04 0.00e+00 7.10e+12   2.7 2.06e+06    -  2.23e-04 2.67e-05h  9
 209 -9.8700504e+04 2.93e+02 1.15e+13   2.9 8.71e+04    -  1.00e+00 1.76e-03f  5
iter    objective    inf_pr   inf_du lg(mu)  ||d||  lg(rg) alpha_du alpha_pr  ls
 210 -9.8962021e+04 3.29e+02 1.36e+13   2.8 3.39e+04    -  1.94e-02 1.95e-03f 10
 211 -1.0109266e+05 3.40e+02 1.49e+13   2.8 8.89e+04    -  1.54e-02 4.24e-04f 12
 212 -1.0249208e+05 3.58e+02 1.66e+13   2.8 2.57e+07    -  3.57e-05 1.73e-06f 10
 213 -1.0320275e+05 3.85e+02 1.88e+13   2.8 3.05e+07    -  1.63e-04 1.66e-06f 10
 214 -1.0409343e+05 4.05e+02 2.10e+13   2.8 4.58e+08    -  1.90e-06 9.40e-08f 15
 215 -1.0455311e+05 4.29e+02 2.34e+13   2.8 1.85e+09    -  6.88e-07 2.30e-08f 15
 216 -1.0555660e+05 4.35e+02 2.47e+13   2.8 3.75e+09    -  5.84e-07 5.44e-09f 16
 217 -1.0641675e+05 4.41e+02 2.61e+13   2.8 9.94e+09    -  1.17e-07 1.98e-09f 16
 218 -1.0710925e+05 4.48e+02 2.76e+13   2.8 9.33e+09    -  3.54e-07 2.01e-09f 16
 219 -1.0760706e+05 4.56e+02 2.92e+13   2.8 7.96e+09    -  1.99e-07 2.19e-09f 16
iter    objective    inf_pr   inf_du lg(mu)  ||d||  lg(rg) alpha_du alpha_pr  ls
 220  3.3037695e-01 6.30e+01 1.89e+07   2.8 6.60e+09    -  8.98e-05 7.87e-05w  1
 221 -1.8976555e+00 3.85e-03 1.50e+06   2.8 5.20e+05    -  9.73e-01 9.90e-01w  1
 222 -5.0347121e+00 2.77e+01 3.94e+05   2.8 5.31e+03    -  5.67e-01 6.72e-01w  1
 223 -1.0460965e+00 1.45e+02 8.32e+03   2.8 1.74e+03    -  1.00e+00 9.90e-01h  1
 224  1.9390649e+00 1.06e-01 4.61e+03   2.1 3.11e+02    -  6.80e-01 7.68e-01H  1
 225  3.1032646e+00 5.78e+01 5.63e+03   1.4 2.88e+01    -  7.92e-01 1.00e+00f  1
 226 -2.1425876e+01 4.76e-03 3.42e+03   1.4 1.04e+01    -  1.00e+00 1.00e+00h  1
 227 -3.5499976e+01 1.16e-03 4.04e+03   1.4 2.22e+02    -  1.00e+00 2.44e-01f  2
 228 -5.6308762e+01 6.32e+02 8.56e+03   1.4 5.48e+02    -  4.42e-01 8.61e-02f  4
 229 -9.8572417e+01 0.00e+00 7.24e+05   1.4 3.40e+02    -  1.00e+00 5.00e-01f  2
iter    objective    inf_pr   inf_du lg(mu)  ||d||  lg(rg) alpha_du alpha_pr  ls
 230 -1.3723936e+02 2.50e+03 6.59e+04   1.4 2.78e+02    -  4.76e-01 2.50e-01f  3
 231 -2.1589818e+02 0.00e+00 4.27e+04   1.4 1.29e+03    -  2.75e-01 2.50e-01f  3
 232 -5.4109990e+01 6.48e+00 1.02e+05   1.4 4.70e+04    -  9.52e-01 1.00e+00h  1
 233 -8.9182451e+01 0.00e+00 2.29e+04   1.4 9.81e+03    -  9.10e-01 1.00e+00f  1
 234 -5.2848188e+01 2.83e+03 6.43e+03   1.4 9.24e+03    -  5.56e-01 1.00e+00f  1
 235 -5.0129764e+01 4.01e+03 4.83e+03   1.4 6.07e+04    -  9.10e-01 7.87e-01h  1
 236 -5.0839449e+01 3.82e+03 5.02e+03   1.4 2.49e+03    -  1.00e+00 9.60e-02h  2
 237 -4.1184760e+02 6.90e+02 2.20e+05   1.4 2.97e+02    -  1.00e+00 6.72e-01f  1
 238 -9.1103276e+02 1.77e+03 6.71e+05   1.4 5.78e+03    -  7.97e-02 5.56e-02f  1
 239 -1.1264479e+03 0.00e+00 3.53e+05   1.4 1.97e+04    -  1.25e-01 3.85e-02f  1
iter    objective    inf_pr   inf_du lg(mu)  ||d||  lg(rg) alpha_du alpha_pr  ls
 240 -1.5172508e+03 2.45e+04 9.64e+05   1.4 4.53e+03    -  2.32e-01 1.63e-01f  2
 241 -4.2636008e+03 2.18e+02 4.04e+07   1.4 5.18e+03    -  1.63e-01 6.68e-02F  1
 242 -9.9967418e+02 0.00e+00 5.48e+05   1.4 1.92e+06    -  4.76e-04 1.23e-03h  3
 243 -1.0028691e+03 0.00e+00 2.85e+05   1.4 3.79e+03    -  9.24e-01 7.27e-01F  1
 244 -1.3493269e+03 0.00e+00 5.96e+05   1.4 2.68e+04    -  2.45e-01 8.08e-02f  4
 245 -5.1403194e+03 0.00e+00 2.14e+07   1.4 1.27e+05    -  1.01e-01 4.11e-02f  3
 246 -5.7963673e+03 6.84e+03 2.86e+07   1.4 3.47e+07    -  5.93e-04 2.48e-04f  2
 247 -8.5255778e+03 0.00e+00 7.41e+07   1.4 1.28e+08    -  6.83e-05 5.30e-05f  5
 248 -1.8504049e+04 0.00e+00 5.08e+08   1.4 4.70e+06    -  2.29e-01 2.45e-03f  4
 249 -3.3718350e+04 1.55e+04 3.03e+09   1.4 1.92e+07    -  1.24e-03 3.50e-04f  3
iter    objective    inf_pr   inf_du lg(mu)  ||d||  lg(rg) alpha_du alpha_pr  ls
 250 -1.1907782e+04 5.87e+03 1.83e+08   1.4 1.10e+05    -  8.90e-01 7.83e-01H  1
 251 -1.9939312e+04 3.69e+03 7.75e+08   1.4 2.59e+04    -  6.95e-01 1.53e-01F  1
 252 -7.0081766e+04 3.29e+05 3.84e+10   1.4 5.43e+04    -  3.21e-03 4.12e-01F  1
 253 -1.4831380e+05 1.44e+05 5.92e+09   1.4 8.17e+06    -  8.71e-04 8.99e-03f  1
 254 -1.6664665e+05 2.54e+02 8.06e+10   1.4 1.05e+09    -  1.07e-04 2.83e-04f  4
 255 -1.8115852e+05 1.90e+02 1.10e+11   1.4 1.80e+05    -  6.44e-02 1.25e-01f  1
 256 -1.8157152e+05 1.91e+02 1.10e+11   1.4 9.14e+05    -  1.26e-01 6.43e-04f  1
 257 -3.9063567e+05 2.65e+04 5.81e+11   1.4 1.24e+06    -  1.70e-01 2.33e-02f  2
 258 -8.8343209e+04 1.61e+02 5.56e+10   1.4 2.14e+05    -  2.38e-01 6.23e-02h  2
 259 -1.9866732e+05 1.57e+02 1.52e+11   1.4 9.73e+06    -  5.87e-01 1.90e-02f  2
iter    objective    inf_pr   inf_du lg(mu)  ||d||  lg(rg) alpha_du alpha_pr  ls
 260 -5.3896915e+05 1.21e+04 2.11e+12   1.4 2.74e+08    -  1.85e-02 3.41e-04f  2
 261 -1.0245065e+04 0.00e+00 1.78e+08   1.4 4.10e+07    -  6.00e-04 2.30e-03h  1
 262 -1.1521270e+04 0.00e+00 1.78e+08   1.4 1.48e+04    -  6.49e-02 1.00e+00f  1
 263 -1.3454263e+04 8.86e-02 2.47e+08   1.4 2.20e+05    -  4.07e-03 2.04e-03f  1
 264 -1.9880459e+04 0.00e+00 5.80e+08   1.4 3.51e+05    -  2.29e-01 2.87e-02f  1
 265 -4.9567346e+04 0.00e+00 7.98e+09   1.4 8.86e+05    -  1.83e-02 5.86e-03f  1
 266 -5.1275339e+04 0.00e+00 8.82e+09   1.4 1.96e+05    -  4.94e-01 2.64e-04f  1
 267 -5.4117695e+04 0.00e+00 9.26e+09   1.4 1.67e+04    -  2.28e-05 2.92e-07f 10
 268 -9.6671136e+04 5.23e+02 5.03e+10   1.4 2.05e+00    -  1.75e-01 1.25e-01f  4
 269 -1.2222247e+05 0.00e+00 9.22e+10   1.4 2.82e+01    -  2.60e-02 6.25e-02f  5
iter    objective    inf_pr   inf_du lg(mu)  ||d||  lg(rg) alpha_du alpha_pr  ls
 270 -1.8709067e+05 2.80e+02 3.08e+11   1.4 1.12e+02    -  3.07e-02 7.10e-03f  5
 271 -3.8533822e+05 1.35e+02 2.65e+12   1.4 7.93e+01    -  5.90e-02 2.02e-02f  2
 272 -3.8546443e+05 1.35e+02 2.65e+12  -4.6 3.23e+04    -  3.80e-05 3.68e-07f 15
 273 -1.8325597e+05 0.00e+00 2.90e+11   3.1 3.72e+06    -  4.25e-07 5.45e-05h 10
 274 -1.9617187e+05 0.00e+00 3.55e+11   3.1 2.84e+05    -  1.00e+00 2.09e-04f  1
 275 -1.8770413e+05 0.00e+00 3.00e+11   3.1 1.43e+04    -  7.35e-03 2.84e-05h  7
 276 -1.9037745e+05 0.00e+00 3.07e+11   3.1 3.09e+02    -  2.72e-03 2.58e-04f 10
 277 -7.2484249e+05 6.25e+01 1.56e+13   3.1 4.93e+03    -  9.48e-02 3.64e-03f  4
 278 -8.8137358e+05 1.01e+02 2.77e+13   3.1 2.69e+05    -  3.71e-03 1.17e-04f  3
 279 -8.8417888e+05 1.01e+02 2.79e+13   3.1 2.86e+04    -  3.31e-03 9.86e-05f  8
iter    objective    inf_pr   inf_du lg(mu)  ||d||  lg(rg) alpha_du alpha_pr  ls
 280 -2.6643501e+05 0.00e+00 7.25e+11   3.1 2.26e+06    -  2.25e-05 4.76e-06h  8
 281 -1.6113046e+06 7.97e+01 1.65e+14   3.1 8.50e+04    -  2.27e-01 1.27e-03f  1
 282 -3.0985312e+06 8.35e+01 1.16e+15   3.1 2.65e+03    -  8.18e-04 1.27e-05f  6
 283 -7.8695374e+06 8.48e+01 1.89e+16   3.1 5.92e+03    -  3.22e-04 2.77e-06f  7
 284 -3.9313362e+05 0.00e+00 2.24e+12   3.1 3.34e+04    -  3.17e-07 1.51e-08h 12
 285 -3.9315535e+05 0.00e+00 2.24e+12   3.1 5.20e-01    -  3.91e-01 2.44e-04f 13
 286 -6.6502536e+05 1.26e+02 1.07e+13   3.1 6.05e-01    -  6.24e-01 1.90e-03f  8
 287 -4.3574903e+05 1.53e-04 3.03e+12   3.1 5.62e+01    -  9.61e-03 7.81e-03h  8
 288 -4.3427130e+05 1.81e-04 2.99e+12   3.1 4.26e+03    -  2.34e-02 2.52e-04f 10
 289 -1.0187695e+06 6.53e+01 3.68e+13   3.1 2.68e+02    -  7.36e-03 3.49e-03f  8
iter    objective    inf_pr   inf_du lg(mu)  ||d||  lg(rg) alpha_du alpha_pr  ls
 290 -4.9884166e+05 6.75e-04 3.93e+12   3.1 3.19e+04    -  9.81e-05 1.39e-04h  7
 291 -6.6958244e+05 1.94e+02 7.78e+12   2.8 1.74e+04    -  1.93e-03 5.41e-04f  6
 292 -6.6964267e+05 1.94e+02 7.78e+12   3.1 6.62e+02    -  3.51e-01 4.08e-05f  9
 293 -2.5714159e+06 7.75e+01 4.43e+14   3.1 4.41e+02    -  5.65e-03 3.15e-03f  8
 294 -9.3219492e+06 8.45e+01 2.17e+16   3.1 3.18e+04    -  2.75e-02 3.09e-05f  2
 295 -2.2050302e+06 7.46e+01 2.79e+14   3.1 1.21e+05    -  3.54e-04 8.18e-06h  1
 296 -3.3049567e+06 9.00e+01 9.18e+14   3.1 2.57e+04    -  7.00e-04 1.21e-05f 11
 297 -1.2092434e+06 4.27e+01 4.33e+13   3.1 4.95e+04    -  1.86e-03 2.29e-05h  5
 298 -9.7404921e+05 1.24e+01 2.19e+13   3.1 2.65e+05    -  6.48e-05 8.39e-06h  5
 299 -9.2858616e+05 2.12e+00 1.87e+13   3.1 3.17e+05    -  2.31e-04 5.66e-06h  6
iter    objective    inf_pr   inf_du lg(mu)  ||d||  lg(rg) alpha_du alpha_pr  ls
 300 -1.6553749e+06 1.15e+02 1.01e+14   3.1 3.49e+05    -  4.18e-04 1.47e-05f  4
 301 -1.6581773e+06 1.16e+02 1.01e+14   3.1 5.05e+05    -  1.07e-04 1.01e-07f 10
 302 -9.2944112e+05 1.40e-03 1.65e+13   3.1 6.79e+04    -  2.25e-05 2.99e-06h  8
 303 -1.6208621e+06 3.88e+01 8.56e+13   3.1 6.34e+04    -  6.46e-04 7.94e-06f 10
 304 -6.1911881e+06 8.03e+01 4.25e+15   3.1 5.64e+06    -  8.11e-06 1.07e-06f  5
 305 -1.5464441e+07 8.40e+01 6.13e+16   3.1 1.27e+07    -  7.26e-06 5.01e-07f  5
 306 -1.8428241e+06 7.18e+00 1.00e+14  -2.8 2.30e+10    -  1.67e-09 1.74e-10h 14
 307 -1.6981826e+06 1.49e-03 7.82e+13   3.0 6.50e+03    -  2.67e-01 4.88e-04h 12
 308 -1.6839485e+07 8.60e+01 7.61e+16   3.1 8.11e+03    -  5.75e-03 4.76e-04f 10
 309 -1.9309434e+06 1.15e+01 1.15e+14   3.1 6.81e+04    -  7.49e-04 1.14e-05h  7
iter    objective    inf_pr   inf_du lg(mu)  ||d||  lg(rg) alpha_du alpha_pr  ls
 310 -1.8276505e+06 2.16e+00 9.72e+13   3.1 4.07e+03    -  9.61e-01 3.52e-04h 10
 311 -1.8124330e+06 5.59e-01 9.47e+13   3.1 1.02e+03    -  5.16e-02 1.03e-04h 13
 312 -2.7397830e+06 4.58e+01 3.21e+14  -2.9 3.21e-02   8.7 1.90e-01 1.06e-02f  4
 313 -5.2191539e+06 7.37e+01 2.20e+15   3.1 6.48e-02   9.1 1.00e+00 3.91e-03f  9
 314 -2.2912678e+06 1.55e+01 1.56e+14   3.1 1.40e-01   9.0 1.00e+00 7.81e-03h  8
 315 -2.0914198e+06 2.40e-03 1.11e+14   3.1 9.69e+03    -  3.83e-05 6.26e-08h 13
 316 -2.6321751e+06 1.45e+02 2.84e+14   3.1 1.42e+03    -  1.84e-03 1.78e-05f 12
 317 -2.5094330e+06 1.30e+01 1.95e+14   3.0 1.18e+04    -  8.85e-04 2.69e-05h 11
 318 -9.0957607e+06 9.07e+01 1.04e+16   3.1 5.57e+03    -  1.71e-03 2.54e-05f 11
 319 -2.6719660e+06 1.66e+01 2.33e+14   3.0 3.89e+04    -  8.03e-04 5.32e-06h 11
iter    objective    inf_pr   inf_du lg(mu)  ||d||  lg(rg) alpha_du alpha_pr  ls
 320 -2.4934635e+06 5.27e+00 1.83e+14   2.4 2.03e+04    -  2.51e-03 2.47e-05h  8
 321 -5.8938631e+06 9.98e+01 2.78e+15   3.1 7.54e+04    -  1.61e-02 2.13e-05f  6
 322 -2.5386219e+06 2.39e-03 1.84e+14   3.0 1.27e+05    -  3.95e-04 4.04e-06h  8
 323 -3.5701236e+06 1.31e+02 6.19e+14   3.1 1.24e+05    -  2.51e-03 1.27e-05f  6
 324 -2.0919892e+06 2.43e-03 8.04e+13   3.0 1.98e+05    -  4.85e-04 1.54e-05h  5
 325 -4.8291422e+06 5.45e+01 1.35e+15   3.0 9.37e+04    -  2.25e-02 1.53e-05f  6
 326 -5.2890674e+06 1.17e+02 1.75e+15   3.1 7.73e+04    -  3.31e-05 2.24e-06f  9
 327 -2.6196275e+06 2.46e-03 1.41e+14   3.1 1.41e+04    -  3.10e-05 6.18e-07h 10
 328 -2.6390154e+06 2.45e-03 1.43e+14   3.1 1.16e+04    -  1.83e-03 1.14e-06f 13
 329 -3.4910020e+06 2.46e-03 3.84e+14   3.1 9.38e+04    -  8.43e-05 3.68e-06f  8
iter    objective    inf_pr   inf_du lg(mu)  ||d||  lg(rg) alpha_du alpha_pr  ls
 330 -9.7421987e+07 8.48e+01 9.10e+18   3.1 1.43e+05    -  1.08e-04 1.20e-06f  9
 331 -1.6664426e+08 8.49e+01 4.54e+19   3.1 2.55e+06    -  5.67e-06 2.09e-09f 14
 332 -5.3548409e+06 2.14e+01 1.42e+15   3.1 1.66e+07    -  8.25e-10 6.03e-12h  8
 333 -4.9078118e+06 7.29e+00 1.07e+15   3.1 1.07e+06    -  1.05e-08 4.32e-11h 10
 334 -5.4400562e+06 1.55e+02 1.59e+15   1.0 8.81e+03    -  4.93e-03 2.71e-04f  5
 335 -6.1912551e+06 2.61e+01 2.10e+15   3.1 3.37e+06    -  1.15e-05 5.32e-07f  5
 336 -5.1769975e+06 2.45e-03 1.19e+15   3.1 1.61e+06    -  3.01e-05 2.82e-06h  8
 337 -7.4277683e+06 4.31e+01 3.66e+15   3.1 7.42e+05    -  1.76e-02 3.46e-06f  8
 338 -2.1256087e+07 9.07e+01 8.58e+16   3.1 3.85e+06    -  1.43e-05 1.36e-06f  5
 339 -4.2459523e+06 2.45e-03 5.78e+14   3.1 2.63e+06    -  2.73e-05 1.19e-06h  6
iter    objective    inf_pr   inf_du lg(mu)  ||d||  lg(rg) alpha_du alpha_pr  ls
 340 -1.0544793e+07 5.96e+01 1.02e+16   3.1 1.48e+06    -  3.06e-04 4.68e-06f  7
 341 -1.5283070e+07 7.22e+01 3.07e+16   3.1 9.34e+06    -  7.68e-06 5.48e-07f  7
 342 -7.9809817e+07 8.55e+01 4.34e+18   3.1 1.38e+07    -  3.17e-05 4.19e-07f  7
 343 -4.5194389e+06 2.45e-03 6.64e+14   3.1 9.33e+10    -  8.66e-10 3.76e-11h  8
 344 -4.5217163e+06 2.45e-03 6.65e+14   3.1 2.16e+10    -  4.01e-09 9.21e-12f 17
 345 -6.3494349e+06 2.45e-03 2.00e+15   3.1 1.69e+05    -  3.90e-01 6.79e-04f  3
 346 -1.2439987e+08 8.48e+01 1.59e+19   3.1 2.40e+05    -  8.25e-04 4.72e-06f 14
 347 -1.5519305e+08 8.52e+01 3.10e+19   3.1 1.96e+07    -  1.02e-05 1.45e-08f 14
